n=214;
k_min=7;
k_max=7;
M=[| 161, 144, 145, 125, 145, 132, 145
 | 166, 139, 144, 123, 150, 125, 148
 | 163, 140, 144, 123, 151, 126, 149
 | 164, 143, 144, 123, 148, 128, 147
 | 165, 142, 143, 122, 150, 127, 147
 | 163, 143, 142, 124, 148, 128, 147
 | 166, 142, 143, 122, 150, 127, 146
 | 165, 143, 143, 122, 150, 128, 146
 | 163, 141, 146, 125, 148, 128, 146
 | 166, 144, 143, 122, 148, 129, 145
 | 163, 143, 142, 123, 149, 129, 147
 | 165, 145, 143, 122, 148, 130, 144
 | 163, 143, 142, 123, 150, 128, 147
 | 164, 144, 143, 122, 149, 129, 145
 | 164, 145, 142, 122, 148, 130, 144
 | 164, 144, 143, 122, 149, 129, 145
 | 164, 146, 143, 122, 147, 131, 144
 | 161, 143, 148, 125, 145, 133, 142
 | 163, 144, 147, 122, 147, 131, 143
 | 164, 144, 144, 122, 148, 129, 145
 | 164, 145, 143, 122, 147, 130, 144
 | 159, 143, 149, 124, 147, 132, 143
 | 165, 146, 143, 122, 147, 131, 144
 | 165, 145, 143, 122, 148, 130, 144
 | 164, 143, 145, 122, 149, 129, 145
 | 165, 145, 143, 122, 148, 129, 144
 | 166, 143, 144, 122, 148, 128, 145
 | 165, 144, 143, 122, 149, 129, 145
 | 164, 146, 142, 122, 148, 130, 144
 | 165, 144, 144, 122, 148, 129, 145
 | 165, 146, 143, 122, 147, 131, 143
 | 164, 145, 143, 121, 149, 130, 144
 | 164, 145, 143, 122, 148, 130, 144
 | 163, 146, 142, 122, 149, 130, 144
 | 165, 146, 143, 121, 147, 131, 143
 | 164, 144, 145, 122, 148, 129, 144
 | 166, 143, 147, 123, 145, 130, 143
 | 166, 146, 143, 121, 147, 130, 143
 | 163, 145, 148, 123, 144, 134, 140
 | 163, 145, 148, 123, 144, 134, 140
 | 165, 146, 143, 121, 147, 131, 143
 | 164, 146, 143, 121, 148, 130, 143
 | 165, 144, 145, 121, 148, 129, 144
 | 166, 146, 147, 122, 143, 134, 139
 | 164, 146, 143, 122, 147, 131, 143
 | 166, 145, 146, 122, 145, 131, 142
 | 163, 146, 145, 121, 148, 131, 143
 | 164, 146, 148, 122, 143, 135, 138
 | 163, 149, 146, 121, 143, 137, 138
 | 165, 144, 147, 122, 146, 131, 142
 | 164, 147, 147, 122, 143, 136, 138
 | 163, 147, 146, 122, 146, 132, 141
 | 160, 146, 148, 120, 149, 131, 141
 | 161, 147, 147, 120, 148, 132, 140
 | 161, 147, 147, 120, 149, 132, 141
 | 159, 149, 144, 121, 149, 134, 140
 | 164, 144, 143, 122, 149, 129, 145
 | 165, 144, 143, 122, 148, 129, 145
 | 165, 141, 143, 123, 150, 127, 148
 | 164, 142, 144, 123, 149, 128, 146
 | 162, 144, 147, 121, 149, 130, 143
 | 162, 143, 147, 124, 146, 131, 145
 | 164, 146, 146, 122, 143, 134, 140
 | 163, 145, 148, 123, 143, 134, 139
 | 164, 147, 147, 121, 144, 134, 139
 | 163, 146, 148, 122, 145, 133, 140
 | 161, 150, 146, 121, 144, 136, 138
 | 161, 150, 146, 121, 144, 136, 138
 | 161, 149, 147, 121, 144, 136, 138
 | 162, 150, 147, 121, 143, 137, 137
 | 159, 138, 146, 128, 149, 127, 150
 | 164, 142, 145, 125, 146, 129, 146
 | 163, 142, 142, 124, 150, 127, 149
 | 163, 141, 143, 124, 150, 127, 149
 | 163, 142, 142, 124, 150, 127, 148
 | 163, 142, 142, 124, 150, 127, 148
 | 163, 141, 144, 125, 148, 127, 148
 | 164, 143, 143, 124, 149, 128, 147
 | 164, 140, 145, 122, 151, 126, 148
 | 162, 143, 142, 125, 149, 128, 148
 | 161, 143, 143, 126, 148, 129, 148
 | 163, 141, 143, 123, 151, 127, 148
 | 164, 142, 144, 123, 149, 127, 147
 | 164, 142, 143, 124, 149, 128, 148
 | 158, 136, 144, 130, 150, 125, 153
 | 164, 142, 144, 122, 149, 128, 146
 | 163, 142, 144, 122, 151, 127, 147
 | 164, 142, 144, 124, 149, 127, 147
 | 164, 143, 143, 123, 149, 128, 147
 | 162, 144, 142, 124, 149, 129, 147
 | 162, 146, 144, 123, 145, 132, 143
 | 164, 144, 143, 122, 149, 129, 145
 | 162, 144, 145, 120, 151, 129, 145
 | 163, 143, 144, 121, 151, 128, 146
 | 163, 144, 143, 123, 149, 129, 146
 | 164, 144, 146, 123, 147, 130, 144
 | 162, 147, 145, 123, 145, 133, 142
 | 161, 149, 143, 122, 148, 133, 142
 | 161, 146, 144, 122, 149, 130, 143
 | 162, 146, 145, 121, 148, 131, 142
 | 161, 147, 145, 121, 149, 132, 142
 | 160, 151, 145, 122, 145, 135, 139
 | 158, 150, 146, 120, 149, 136, 139
 | 155, 149, 148, 126, 141, 144, 133
 | 158, 149, 150, 123, 142, 141, 134
 | 146, 153, 142, 125, 141, 166, 124
 | 146, 148, 142, 134, 141, 152, 133
 | 145, 149, 144, 132, 141, 155, 131
 | 148, 166, 154, 116, 147, 144, 122
 | 147, 156, 151, 120, 150, 144, 129
 | 145, 152, 144, 127, 142, 158, 129
 | 145, 152, 143, 128, 142, 158, 129
 | 145, 153, 146, 127, 142, 157, 127
 | 163, 142, 144, 124, 148, 128, 147
 | 163, 144, 143, 124, 147, 130, 146
 | 163, 143, 144, 124, 147, 129, 147
 | 163, 143, 144, 124, 147, 129, 146
 | 163, 140, 144, 126, 147, 127, 149
 | 163, 142, 144, 124, 148, 128, 148
 | 163, 141, 144, 124, 149, 127, 148
 | 164, 143, 144, 123, 147, 129, 146
 | 163, 143, 143, 124, 149, 128, 147
 | 164, 142, 144, 123, 149, 128, 147
 | 163, 141, 144, 124, 149, 127, 148
 | 164, 144, 144, 122, 148, 129, 145
 | 166, 144, 143, 123, 146, 130, 144
 | 164, 145, 144, 122, 147, 130, 144
 | 166, 147, 152, 118, 145, 135, 133
 | 162, 147, 152, 119, 147, 134, 135
 | 158, 152, 156, 117, 146, 140, 127
 | 154, 157, 154, 116, 146, 144, 124
 | 147, 155, 148, 125, 143, 154, 125
 | 162, 142, 144, 125, 148, 128, 147
 | 166, 141, 144, 125, 146, 128, 147
 | 164, 142, 143, 123, 149, 128, 147
 | 163, 144, 144, 124, 146, 130, 146
 | 164, 144, 143, 122, 149, 129, 146
 | 164, 143, 142, 123, 149, 128, 147
 | 162, 143, 142, 124, 150, 128, 148
 | 163, 143, 142, 124, 149, 128, 148
 | 164, 142, 144, 124, 148, 128, 147
 | 164, 144, 144, 122, 148, 129, 146
 | 164, 144, 143, 123, 149, 129, 146
 | 163, 143, 143, 124, 148, 128, 147
 | 163, 146, 145, 121, 148, 131, 142
 | 164, 146, 143, 123, 146, 131, 144
 | 162, 144, 146, 121, 150, 130, 144
 | 165, 143, 144, 122, 148, 128, 146
 | 165, 143, 144, 122, 148, 129, 145
 | 163, 147, 142, 123, 146, 132, 144
 | 164, 143, 144, 123, 147, 129, 145
 | 162, 144, 148, 124, 144, 134, 141
 | 160, 145, 147, 121, 149, 132, 143
 | 164, 143, 145, 122, 149, 128, 146
 | 164, 146, 144, 122, 146, 131, 143
 | 164, 145, 144, 121, 149, 130, 144
 | 164, 144, 146, 121, 148, 129, 144
 | 164, 145, 148, 122, 144, 134, 139
 | 166, 144, 146, 123, 145, 130, 143
 | 165, 144, 146, 123, 145, 130, 143
 | 164, 145, 146, 122, 145, 131, 142
 | 160, 145, 147, 121, 149, 131, 143
 | 161, 144, 148, 125, 144, 133, 142
 | 148, 137, 142, 143, 143, 131, 152
 | 160, 154, 149, 118, 146, 140, 131
 | 152, 166, 143, 118, 141, 150, 127
 | 150, 162, 142, 121, 141, 152, 128
 | 149, 154, 148, 120, 148, 151, 126
 | 151, 150, 149, 123, 152, 143, 129
 | 150, 157, 151, 118, 149, 149, 123
 | 148, 158, 150, 120, 145, 153, 122
 | 142, 136, 138, 166, 139, 134, 142
 | 142, 136, 138, 165, 139, 134, 143
 | 148, 158, 149, 121, 144, 154, 123
 | 166, 149, 148, 119, 147, 137, 131
 | 151, 156, 150, 117, 149, 149, 125
 | 161, 146, 154, 118, 147, 134, 136
 | 160, 148, 153, 117, 148, 135, 135
 | 159, 146, 155, 119, 149, 131, 137
 | 159, 146, 155, 118, 149, 132, 137
 | 151, 140, 147, 122, 166, 126, 144
 | 152, 153, 166, 114, 152, 132, 127
 | 149, 158, 156, 116, 152, 142, 123
 | 148, 161, 154, 118, 148, 142, 126
 | 145, 143, 147, 132, 152, 132, 144
 | 152, 134, 139, 135, 148, 123, 166
 | 151, 135, 142, 138, 145, 127, 158
 | 163, 145, 146, 122, 147, 130, 143
 | 155, 145, 151, 129, 144, 136, 137
 | 150, 144, 150, 131, 145, 132, 143
 | 154, 144, 153, 120, 153, 131, 141
 | 147, 146, 155, 122, 161, 131, 135
 | 148, 146, 153, 119, 166, 132, 132
 | 147, 146, 153, 124, 157, 132, 138
 | 147, 146, 152, 124, 157, 132, 138
 | 149, 146, 153, 120, 164, 132, 132
 | 150, 148, 153, 119, 161, 135, 131
 | 148, 147, 155, 120, 161, 131, 133
 | 149, 147, 154, 120, 163, 132, 132
 | 147, 147, 156, 122, 160, 131, 134
 | 146, 146, 154, 124, 159, 130, 138
 | 147, 145, 143, 136, 147, 140, 139
 | 147, 145, 153, 124, 160, 130, 137
 | 147, 145, 152, 126, 156, 131, 140
 | 147, 147, 155, 122, 160, 131, 135
 | 147, 147, 153, 124, 156, 132, 138
 | 147, 147, 154, 123, 157, 131, 137
 | 145, 140, 145, 138, 149, 131, 149
 | 149, 148, 156, 119, 161, 134, 130
 | 150, 146, 153, 122, 159, 134, 133
 | 147, 146, 153, 125, 156, 131, 139
 | 148, 145, 151, 124, 157, 132, 139
 | 147, 146, 151, 124, 157, 132, 139
 | 148, 146, 151, 124, 157, 133, 138 |];
 P=[1, 1, 1, 1, 1, 1, 1, 1, 1, 1, 1, 1, 1, 1, 1, 1, 1, 1, 1, 1, 1, 1, 1, 1, 1, 1, 1, 1, 1, 1, 1, 1, 1, 1, 1, 1, 1, 1, 1, 1, 1, 1, 1, 1, 1, 1, 1, 1, 1, 1, 1, 1, 1, 1, 1, 1, 1, 1, 1, 1, 1, 1, 1, 1, 1, 1, 1, 1, 1, 1, 1, 1, 1, 1, 1, 1, 1, 1, 1, 1, 1, 1, 1, 1, 1, 1, 1, 1, 1, 1, 1, 1, 1, 1, 1, 1, 1, 1, 1, 1, 1, 1, 1, 1, 1, 6, 6, 6, 2, 2, 6, 6, 6, 1, 1, 1, 1, 1, 1, 1, 1, 1, 1, 1, 1, 1, 1, 1, 1, 1, 2, 6, 1, 1, 1, 1, 1, 1, 1, 1, 1, 1, 1, 1, 1, 1, 1, 1, 1, 1, 1, 1, 1, 1, 1, 1, 1, 1, 1, 1, 1, 1, 1, 7, 1, 2, 2, 2, 2, 2, 2, 4, 4, 2, 1, 2, 1, 1, 1, 1, 5, 3, 2, 2, 5, 7, 7, 1, 1, 1, 3, 5, 5, 5, 5, 5, 5, 5, 5, 5, 5, 2, 5, 5, 5, 5, 5, 5, 5, 5, 5, 5, 5, 5 ];